# SCIP version 3.0.0

sepa/basis/enable = TRUE

sepa/basis/genobjconvex = FALSE

sepa/basis/objconvex = 0.0

sepa/basis/enableobj = FALSE

sepa/basis/enableobjround = FALSE

sepa/basis/enableppcuts = TRUE



lp/iterlim = -1

lp/rootiterlim = -1

conflict/enable = FALSE

detectors/random/enabled = FALSE

separating/poolfreq = -1 fix
